objective value:                     1.53692856132514
x(0,7,2)                                            1 	(obj:0)
x(1,4,0)                                            1 	(obj:0)
x(2,1,0)                                            1 	(obj:0)
x(2,3,2)                                            1 	(obj:0)
x(3,8,2)                                            1 	(obj:0)
x(4,12,0)                                           1 	(obj:0)
x(6,9,1)                                            1 	(obj:0)
x(7,12,2)                                           1 	(obj:0)
x(8,0,2)                                            1 	(obj:0)
x(9,16,1)                                           1 	(obj:0)
x(12,2,0)                                           1 	(obj:0)
x(12,2,2)                                           1 	(obj:0)
x(16,6,1)                                           1 	(obj:0)
xc(0,13)                                            1 	(obj:0)
xc(2,6)                                             1 	(obj:0)
xc(2,16)                                            1 	(obj:0)
xc(3,10)                                            1 	(obj:0)
xc(4,14)                                            1 	(obj:0)
xc(6,16)                                            1 	(obj:0)
xc(9,19)                                            1 	(obj:0)
u(0,2)                              0.955496212461702 	(obj:0)
u(1,0)                               0.74559347997255 	(obj:0)
u(3,2)                                0.3311267642374 	(obj:0)
u(4,0)                               0.98312098226455 	(obj:0)
u(7,2)                                1.3408558982352 	(obj:0)
u(8,2)                              0.649790420546301 	(obj:0)
u(9,1)                               0.61994951700669 	(obj:0)
u(12,0)                              1.53692856132514 	(obj:0)
u(12,2)                               1.5192423280353 	(obj:0)
u(16,1)                              1.23989903401338 	(obj:0)
f(0,7,0)                                            1 	(obj:0)
f(0,7,3)                                            1 	(obj:0)
f(1,4,1)                                            1 	(obj:0)
f(2,6,0)                                            1 	(obj:0)
f(2,6,1)                                            1 	(obj:0)
f(2,6,2)                                            1 	(obj:0)
f(2,6,3)                                            1 	(obj:0)
f(2,6,4)                                            1 	(obj:0)
f(3,8,3)                                            1 	(obj:0)
f(4,12,1)                                           1 	(obj:0)
f(4,12,4)                                           1 	(obj:0)
f(6,9,0)                                            1 	(obj:0)
f(6,9,1)                                            1 	(obj:0)
f(6,9,2)                                            1 	(obj:0)
f(6,9,3)                                            1 	(obj:0)
f(6,9,4)                                            1 	(obj:0)
f(7,12,0)                                           1 	(obj:0)
f(7,12,3)                                           1 	(obj:0)
f(8,0,3)                                            1 	(obj:0)
f(12,2,0)                                           1 	(obj:0)
f(12,2,1)                                           1 	(obj:0)
f(12,2,3)                                           1 	(obj:0)
f(12,2,4)                                           1 	(obj:0)
z_r(0,)                              1.53692856132514 	(obj:0)
z_r(1,)                              1.23989903401338 	(obj:0)
z_r(2,)                               1.5192423280353 	(obj:0)
z                                    1.53692856132514 	(obj:1)
